(set-info :source |printed by MathSAT|)
(declare-fun |!{$(in_main#0)<array.1>}| () (Array Int Int))
(declare-fun |!{$(in_main#0)<array.1>}.next| () (Array Int Int))
(declare-fun |!{$(in_main#0)<N>}| () Int)
(declare-fun |!{$(in_main#0)<N>}.next| () Int)
(declare-fun |!{$(in_main#0)<argmax>}| () Int)
(declare-fun |!{$(in_main#0)<argmax>}.next| () Int)
(declare-fun |!{$(in_main#0)<i>}| () Int)
(declare-fun |!{$(in_main#0)<i>}.next| () Int)
(declare-fun |!{$(in_main#0)<k>}| () Int)
(declare-fun |!{$(in_main#0)<k>}.next| () Int)
(declare-fun |!{$(in_main#0)<k#1>}| () Int)
(declare-fun |!{$(in_main#0)<k#1>}.next| () Int)
(declare-fun |!{$(in_main#0)<$(in___VERIFIER_nondet_int#0)<h#<__VERIFIER_nondet_int.return>>>}| () Int)
(declare-fun |!{$(in_main#0)<$(in___VERIFIER_nondet_int#2)<h#<__VERIFIER_nondet_int.return>>>}| () Int)
(declare-fun !pc () Int)
(declare-fun !pc.next () Int)
(declare-fun |%{$(in_main#0)<argmax>}#1| () Int)
(declare-fun |%{$(in_main#0)<i>}#1| () Int)
(declare-fun |%{$(in_main#0)<k#1>}#1| () Int)
(declare-fun |%{$(in_main#0)<array.1>}#1| () (Array Int Int))
(declare-fun |%{$(in_main#0)<argmax>}#2| () Int)
(define-fun .def_34 () Int (! !pc :next !pc.next))
(define-fun .def_37 () Bool (! (= .def_34 2) :init true))
(define-fun .def_188 () Bool (= .def_34 40))
(define-fun .def_160 () Bool (= !pc.next 61))
(define-fun .def_191 () Bool (and .def_160 .def_188))
(define-fun .def_183 () Bool (= |!{$(in_main#0)<i>}.next| 0))
(define-fun .def_181 () Bool (= |!{$(in_main#0)<argmax>}.next| 0))
(define-fun .def_10 () Int (! |!{$(in_main#0)<N>}| :next |!{$(in_main#0)<N>}.next|))
(define-fun .def_84 () Bool (= .def_10 |!{$(in_main#0)<N>}.next|))
(define-fun .def_8 () (Array Int Int) (! |!{$(in_main#0)<array.1>}| :next |!{$(in_main#0)<array.1>}.next|))
(define-fun .def_82 () Bool (= .def_8 |!{$(in_main#0)<array.1>}.next|))
(define-fun .def_95 () Bool (and .def_82 .def_84))
(define-fun .def_182 () Bool (and .def_95 .def_181))
(define-fun .def_184 () Bool (and .def_182 .def_183))
(define-fun .def_16 () Int (! |!{$(in_main#0)<k>}| :next |!{$(in_main#0)<k>}.next|))
(define-fun .def_90 () Bool (= .def_16 |!{$(in_main#0)<k>}.next|))
(define-fun .def_185 () Bool (and .def_90 .def_184))
(define-fun .def_18 () Int (! |!{$(in_main#0)<k#1>}| :next |!{$(in_main#0)<k#1>}.next|))
(define-fun .def_92 () Bool (= .def_18 |!{$(in_main#0)<k#1>}.next|))
(define-fun .def_186 () Bool (and .def_92 .def_185))
(define-fun .def_167 () Bool (<= .def_10 .def_16))
(define-fun .def_187 () Bool (and .def_167 .def_186))
(define-fun .def_192 () Bool (and .def_187 .def_191))
(define-fun .def_68 () Bool (= !pc.next 40))
(define-fun .def_189 () Bool (and .def_68 .def_188))
(define-fun .def_175 () Int (* (- 1) |!{$(in_main#0)<k>}.next|))
(define-fun .def_176 () Int (+ .def_16 .def_175))
(define-fun .def_177 () Bool (= .def_176 (- 1)))
(define-fun .def_169 () (Array Int Int) (store .def_8 .def_16 |!{$(in_main#0)<$(in___VERIFIER_nondet_int#2)<h#<__VERIFIER_nondet_int.return>>>}|))
(define-fun .def_171 () Bool (= |!{$(in_main#0)<array.1>}.next| .def_169))
(define-fun .def_172 () Bool (and .def_84 .def_171))
(define-fun .def_12 () Int (! |!{$(in_main#0)<argmax>}| :next |!{$(in_main#0)<argmax>}.next|))
(define-fun .def_86 () Bool (= .def_12 |!{$(in_main#0)<argmax>}.next|))
(define-fun .def_173 () Bool (and .def_86 .def_172))
(define-fun .def_14 () Int (! |!{$(in_main#0)<i>}| :next |!{$(in_main#0)<i>}.next|))
(define-fun .def_88 () Bool (= .def_14 |!{$(in_main#0)<i>}.next|))
(define-fun .def_174 () Bool (and .def_88 .def_173))
(define-fun .def_178 () Bool (and .def_174 .def_177))
(define-fun .def_179 () Bool (and .def_92 .def_178))
(define-fun .def_168 () Bool (not .def_167))
(define-fun .def_180 () Bool (and .def_168 .def_179))
(define-fun .def_190 () Bool (and .def_180 .def_189))
(define-fun .def_193 () Bool (or .def_190 .def_192))
(define-fun .def_159 () Bool (= .def_34 61))
(define-fun .def_118 () Bool (= !pc.next 84))
(define-fun .def_163 () Bool (and .def_118 .def_159))
(define-fun .def_155 () Bool (= |!{$(in_main#0)<k#1>}.next| 0))
(define-fun .def_96 () Bool (and .def_86 .def_95))
(define-fun .def_97 () Bool (and .def_88 .def_96))
(define-fun .def_98 () Bool (and .def_90 .def_97))
(define-fun .def_156 () Bool (and .def_98 .def_155))
(define-fun .def_129 () Bool (<= .def_10 .def_14))
(define-fun .def_157 () Bool (and .def_129 .def_156))
(define-fun .def_164 () Bool (and .def_157 .def_163))
(define-fun .def_161 () Bool (and .def_159 .def_160))
(define-fun .def_147 () Int (* (- 1) |!{$(in_main#0)<i>}.next|))
(define-fun .def_148 () Int (+ .def_14 .def_147))
(define-fun .def_149 () Bool (= .def_148 (- 1)))
(define-fun .def_145 () Bool (= |!{$(in_main#0)<argmax>}.next| |%{$(in_main#0)<argmax>}#2|))
(define-fun .def_146 () Bool (and .def_95 .def_145))
(define-fun .def_150 () Bool (and .def_146 .def_149))
(define-fun .def_151 () Bool (and .def_90 .def_150))
(define-fun .def_152 () Bool (and .def_92 .def_151))
(define-fun .def_139 () Bool (= .def_14 |%{$(in_main#0)<argmax>}#2|))
(define-fun .def_74 () Int (select .def_8 .def_12))
(define-fun .def_131 () Int (select .def_8 .def_14))
(define-fun .def_132 () Bool (<= .def_131 .def_74))
(define-fun .def_133 () Bool (not .def_132))
(define-fun .def_141 () Bool (and .def_133 .def_139))
(define-fun .def_138 () Bool (= .def_12 |%{$(in_main#0)<argmax>}#2|))
(define-fun .def_140 () Bool (and .def_132 .def_138))
(define-fun .def_142 () Bool (or .def_140 .def_141))
(define-fun .def_153 () Bool (and .def_142 .def_152))
(define-fun .def_130 () Bool (not .def_129))
(define-fun .def_154 () Bool (and .def_130 .def_153))
(define-fun .def_162 () Bool (and .def_154 .def_161))
(define-fun .def_165 () Bool (or .def_162 .def_164))
(define-fun .def_122 () Bool (= !pc.next 0))
(define-fun .def_113 () Bool (= .def_34 84))
(define-fun .def_123 () Bool (and .def_113 .def_122))
(define-fun .def_71 () Bool (<= .def_10 .def_18))
(define-fun .def_106 () Bool (and .def_71 .def_82))
(define-fun .def_107 () Bool (and .def_84 .def_106))
(define-fun .def_108 () Bool (and .def_86 .def_107))
(define-fun .def_109 () Bool (and .def_88 .def_108))
(define-fun .def_110 () Bool (and .def_90 .def_109))
(define-fun .def_111 () Bool (and .def_92 .def_110))
(define-fun .def_124 () Bool (and .def_111 .def_123))
(define-fun .def_119 () Bool (and .def_113 .def_118))
(define-fun .def_100 () Int (* (- 1) |!{$(in_main#0)<k#1>}.next|))
(define-fun .def_101 () Int (+ .def_18 .def_100))
(define-fun .def_102 () Bool (= .def_101 (- 1)))
(define-fun .def_103 () Bool (and .def_98 .def_102))
(define-fun .def_73 () Int (select .def_8 .def_18))
(define-fun .def_75 () Bool (<= .def_73 .def_74))
(define-fun .def_76 () Int (ite .def_75 1 0))
(define-fun .def_77 () Bool (= .def_76 0))
(define-fun .def_78 () Bool (not .def_77))
(define-fun .def_104 () Bool (and .def_78 .def_103))
(define-fun .def_72 () Bool (not .def_71))
(define-fun .def_105 () Bool (and .def_72 .def_104))
(define-fun .def_120 () Bool (and .def_105 .def_119))
(define-fun .def_115 () Bool (= !pc.next 104))
(define-fun .def_116 () Bool (and .def_113 .def_115))
(define-fun .def_83 () Bool (and .def_77 .def_82))
(define-fun .def_85 () Bool (and .def_83 .def_84))
(define-fun .def_87 () Bool (and .def_85 .def_86))
(define-fun .def_89 () Bool (and .def_87 .def_88))
(define-fun .def_91 () Bool (and .def_89 .def_90))
(define-fun .def_93 () Bool (and .def_91 .def_92))
(define-fun .def_94 () Bool (and .def_72 .def_93))
(define-fun .def_117 () Bool (and .def_94 .def_116))
(define-fun .def_121 () Bool (or .def_117 .def_120))
(define-fun .def_125 () Bool (or .def_121 .def_124))
(define-fun .def_69 () Bool (and .def_37 .def_68))
(define-fun .def_64 () Bool (= |!{$(in_main#0)<k#1>}.next| |%{$(in_main#0)<k#1>}#1|))
(define-fun .def_62 () Bool (= |!{$(in_main#0)<k>}.next| 0))
(define-fun .def_60 () Bool (= |!{$(in_main#0)<i>}.next| |%{$(in_main#0)<i>}#1|))
(define-fun .def_58 () Bool (= |!{$(in_main#0)<argmax>}.next| |%{$(in_main#0)<argmax>}#1|))
(define-fun .def_56 () Bool (= |!{$(in_main#0)<N>}.next| |!{$(in_main#0)<$(in___VERIFIER_nondet_int#0)<h#<__VERIFIER_nondet_int.return>>>}|))
(define-fun .def_55 () Bool (= |!{$(in_main#0)<array.1>}.next| |%{$(in_main#0)<array.1>}#1|))
(define-fun .def_57 () Bool (and .def_55 .def_56))
(define-fun .def_59 () Bool (and .def_57 .def_58))
(define-fun .def_61 () Bool (and .def_59 .def_60))
(define-fun .def_63 () Bool (and .def_61 .def_62))
(define-fun .def_65 () Bool (and .def_63 .def_64))
(define-fun .def_50 () Bool (<= |!{$(in_main#0)<$(in___VERIFIER_nondet_int#0)<h#<__VERIFIER_nondet_int.return>>>}| 0))
(define-fun .def_51 () Bool (not .def_50))
(define-fun .def_52 () Int (ite .def_51 1 0))
(define-fun .def_53 () Bool (= .def_52 0))
(define-fun .def_54 () Bool (not .def_53))
(define-fun .def_66 () Bool (and .def_54 .def_65))
(define-fun .def_70 () Bool (and .def_66 .def_69))
(define-fun .def_126 () Bool (or .def_70 .def_125))
(define-fun .def_166 () Bool (or .def_126 .def_165))
(define-fun .def_194 () Bool (! (or .def_166 .def_193) :trans true))
(define-fun .def_127 () Bool (= .def_34 104))
(define-fun .def_195 () Bool (! (not .def_127) :invar-property 0 :invar-property-name ||))
(assert true)
